# Solution for model MIP
# Objective value = -1.1198535946897111e+03
team_t0_s0 0
team_t1_s0 0
team_t2_s0 0
team_t3_s0 0
team_t4_s0 0
team_t5_s0 0
team_t6_s0 1
team_t7_s0 0
team_t8_s0 0
team_t9_s0 0
team_t10_s0 0
team_t0_s1 0
team_t1_s1 0
team_t2_s1 0
team_t3_s1 0
team_t4_s1 0
team_t5_s1 0
team_t6_s1 0
team_t7_s1 0
team_t8_s1 0
team_t9_s1 1
team_t10_s1 0
team_t0_s2 0
team_t1_s2 0
team_t2_s2 0
team_t3_s2 0
team_t4_s2 0
team_t5_s2 0
team_t6_s2 0
team_t7_s2 0
team_t8_s2 0
team_t9_s2 1
team_t10_s2 0
theta -9.5367312039192745e+02
z_w0_k0_m0 5.8961244398652257e-01
z_w0_k0_m1 1.3680653727354120e-01
z_w0_k0_m2 6.6202887134872190e-01
z_w0_k0_m3 9.8712825653335157e-01
z_w0_k0_m4 8.9745984671931467e-01
z_w0_k1_m0 4.4128193689725048e-01
z_w0_k1_m1 4.0544069801002031e-01
z_w0_k1_m2 4.7955217178922088e-01
z_w0_k1_m3 6.0705390669165449e-01
z_w0_k1_m4 8.1489205592753788e-01
z_w0_k2_m0 5.8961244398652257e-01
z_w0_k2_m1 1.3680653727354120e-01
z_w0_k2_m2 6.6202887134872190e-01
z_w0_k2_m3 9.8712825653335157e-01
z_w0_k2_m4 8.9745984671931467e-01
z_w0_k3_m0 4.4128193689725037e-01
z_w0_k3_m1 4.0544069801002025e-01
z_w0_k3_m2 4.7955217178922083e-01
z_w0_k3_m3 6.0705390669165449e-01
z_w0_k3_m4 8.1489205592753788e-01
z_w1_k0_m0 5.8961244398652257e-01
z_w1_k0_m1 1.3680653727354120e-01
z_w1_k0_m2 6.6202887134872190e-01
z_w1_k0_m3 9.8712825653335157e-01
z_w1_k0_m4 8.9745984671931467e-01
z_w1_k1_m0 5.8961244398652257e-01
z_w1_k1_m1 1.3680653727354120e-01
z_w1_k1_m2 6.6202887134872190e-01
z_w1_k1_m3 9.8712825653335157e-01
z_w1_k1_m4 8.9745984671931467e-01
z_w1_k2_m0 5.8961244398652257e-01
z_w1_k2_m1 1.3680653727354120e-01
z_w1_k2_m2 6.6202887134872190e-01
z_w1_k2_m3 9.8712825653335157e-01
z_w1_k2_m4 8.9745984671931467e-01
z_w1_k3_m0 4.4128193689725037e-01
z_w1_k3_m1 4.0544069801002025e-01
z_w1_k3_m2 4.7955217178922088e-01
z_w1_k3_m3 6.0705390669165449e-01
z_w1_k3_m4 8.1489205592753788e-01
z_w2_k0_m0 4.4128193689725037e-01
z_w2_k0_m1 4.0544069801002031e-01
z_w2_k0_m2 4.7955217178922088e-01
z_w2_k0_m3 6.0705390669165449e-01
z_w2_k0_m4 8.1489205592753788e-01
z_w2_k1_m0 5.8961244398652257e-01
z_w2_k1_m1 1.3680653727354120e-01
z_w2_k1_m2 6.6202887134872190e-01
z_w2_k1_m3 9.8712825653335157e-01
z_w2_k1_m4 8.9745984671931467e-01
z_w2_k2_m0 4.4128193689725037e-01
z_w2_k2_m1 4.0544069801002031e-01
z_w2_k2_m2 4.7955217178922088e-01
z_w2_k2_m3 6.0705390669165449e-01
z_w2_k2_m4 8.1489205592753788e-01
z_w2_k3_m0 4.4128193689725043e-01
z_w2_k3_m1 4.0544069801002031e-01
z_w2_k3_m2 4.7955217178922088e-01
z_w2_k3_m3 6.0705390669165449e-01
z_w2_k3_m4 8.1489205592753788e-01
z_w3_k0_m0 4.4128193689725037e-01
z_w3_k0_m1 4.0544069801002031e-01
z_w3_k0_m2 4.7955217178922088e-01
z_w3_k0_m3 6.0705390669165449e-01
z_w3_k0_m4 8.1489205592753788e-01
z_w3_k1_m0 5.8961244398652257e-01
z_w3_k1_m1 1.3680653727354120e-01
z_w3_k1_m2 6.6202887134872190e-01
z_w3_k1_m3 9.8712825653335157e-01
z_w3_k1_m4 8.9745984671931467e-01
z_w3_k2_m0 4.4128193689725037e-01
z_w3_k2_m1 4.0544069801002031e-01
z_w3_k2_m2 4.7955217178922088e-01
z_w3_k2_m3 6.0705390669165449e-01
z_w3_k2_m4 8.1489205592753788e-01
z_w3_k3_m0 5.8961244398652257e-01
z_w3_k3_m1 1.3680653727354120e-01
z_w3_k3_m2 6.6202887134872190e-01
z_w3_k3_m3 9.8712825653335157e-01
z_w3_k3_m4 8.9745984671931467e-01
z_w4_k0_m0 4.4128193689725037e-01
z_w4_k0_m1 4.0544069801002031e-01
z_w4_k0_m2 4.7955217178922088e-01
z_w4_k0_m3 6.0705390669165449e-01
z_w4_k0_m4 8.1489205592753788e-01
z_w4_k1_m0 5.8961244398652257e-01
z_w4_k1_m1 1.3680653727354120e-01
z_w4_k1_m2 6.6202887134872190e-01
z_w4_k1_m3 9.8712825653335157e-01
z_w4_k1_m4 8.9745984671931467e-01
z_w4_k2_m0 4.4128193689725037e-01
z_w4_k2_m1 4.0544069801002031e-01
z_w4_k2_m2 4.7955217178922088e-01
z_w4_k2_m3 6.0705390669165449e-01
z_w4_k2_m4 8.1489205592753788e-01
z_w4_k3_m0 5.8961244398652257e-01
z_w4_k3_m1 1.3680653727354120e-01
z_w4_k3_m2 6.6202887134872190e-01
z_w4_k3_m3 9.8712825653335157e-01
z_w4_k3_m4 8.9745984671931467e-01
pi_w0_t0_k0 1
pi_w0_t0_k1 0
pi_w0_t0_k2 1
pi_w0_t0_k3 0
pi_w0_t1_k0 0
pi_w0_t1_k1 0
pi_w0_t1_k2 0
pi_w0_t1_k3 0
pi_w0_t2_k0 0
pi_w0_t2_k1 0
pi_w0_t2_k2 0
pi_w0_t2_k3 0
pi_w0_t3_k0 0
pi_w0_t3_k1 0
pi_w0_t3_k2 0
pi_w0_t3_k3 0
pi_w0_t4_k0 0
pi_w0_t4_k1 0
pi_w0_t4_k2 0
pi_w0_t4_k3 0
pi_w0_t5_k0 0
pi_w0_t5_k1 0
pi_w0_t5_k2 0
pi_w0_t5_k3 0
pi_w0_t6_k0 0
pi_w0_t6_k1 3.3333333333333331e-01
pi_w0_t6_k2 0
pi_w0_t6_k3 3.3333333333333331e-01
pi_w0_t7_k0 0
pi_w0_t7_k1 0
pi_w0_t7_k2 0
pi_w0_t7_k3 0
pi_w0_t8_k0 0
pi_w0_t8_k1 0
pi_w0_t8_k2 0
pi_w0_t8_k3 0
pi_w0_t9_k0 0
pi_w0_t9_k1 6.6666666666666663e-01
pi_w0_t9_k2 0
pi_w0_t9_k3 6.6666666666666663e-01
pi_w0_t10_k0 0
pi_w0_t10_k1 0
pi_w0_t10_k2 0
pi_w0_t10_k3 0
pi_w1_t0_k0 1
pi_w1_t0_k1 1
pi_w1_t0_k2 1
pi_w1_t0_k3 0
pi_w1_t1_k0 0
pi_w1_t1_k1 0
pi_w1_t1_k2 0
pi_w1_t1_k3 0
pi_w1_t2_k0 0
pi_w1_t2_k1 0
pi_w1_t2_k2 0
pi_w1_t2_k3 0
pi_w1_t3_k0 0
pi_w1_t3_k1 0
pi_w1_t3_k2 0
pi_w1_t3_k3 0
pi_w1_t4_k0 0
pi_w1_t4_k1 0
pi_w1_t4_k2 0
pi_w1_t4_k3 0
pi_w1_t5_k0 0
pi_w1_t5_k1 0
pi_w1_t5_k2 0
pi_w1_t5_k3 0
pi_w1_t6_k0 0
pi_w1_t6_k1 0
pi_w1_t6_k2 0
pi_w1_t6_k3 3.3333333333333331e-01
pi_w1_t7_k0 0
pi_w1_t7_k1 0
pi_w1_t7_k2 0
pi_w1_t7_k3 0
pi_w1_t8_k0 0
pi_w1_t8_k1 0
pi_w1_t8_k2 0
pi_w1_t8_k3 0
pi_w1_t9_k0 0
pi_w1_t9_k1 0
pi_w1_t9_k2 0
pi_w1_t9_k3 6.6666666666666663e-01
pi_w1_t10_k0 0
pi_w1_t10_k1 0
pi_w1_t10_k2 0
pi_w1_t10_k3 0
pi_w2_t0_k0 0
pi_w2_t0_k1 1
pi_w2_t0_k2 0
pi_w2_t0_k3 0
pi_w2_t1_k0 0
pi_w2_t1_k1 0
pi_w2_t1_k2 0
pi_w2_t1_k3 0
pi_w2_t2_k0 0
pi_w2_t2_k1 0
pi_w2_t2_k2 0
pi_w2_t2_k3 0
pi_w2_t3_k0 0
pi_w2_t3_k1 0
pi_w2_t3_k2 0
pi_w2_t3_k3 0
pi_w2_t4_k0 0
pi_w2_t4_k1 0
pi_w2_t4_k2 0
pi_w2_t4_k3 0
pi_w2_t5_k0 0
pi_w2_t5_k1 0
pi_w2_t5_k2 0
pi_w2_t5_k3 0
pi_w2_t6_k0 3.3333333333333331e-01
pi_w2_t6_k1 0
pi_w2_t6_k2 3.3333333333333331e-01
pi_w2_t6_k3 3.3333333333333331e-01
pi_w2_t7_k0 0
pi_w2_t7_k1 0
pi_w2_t7_k2 0
pi_w2_t7_k3 0
pi_w2_t8_k0 0
pi_w2_t8_k1 0
pi_w2_t8_k2 0
pi_w2_t8_k3 0
pi_w2_t9_k0 6.6666666666666663e-01
pi_w2_t9_k1 0
pi_w2_t9_k2 6.6666666666666663e-01
pi_w2_t9_k3 6.6666666666666663e-01
pi_w2_t10_k0 0
pi_w2_t10_k1 0
pi_w2_t10_k2 0
pi_w2_t10_k3 0
pi_w3_t0_k0 0
pi_w3_t0_k1 1
pi_w3_t0_k2 0
pi_w3_t0_k3 1
pi_w3_t1_k0 0
pi_w3_t1_k1 0
pi_w3_t1_k2 0
pi_w3_t1_k3 0
pi_w3_t2_k0 0
pi_w3_t2_k1 0
pi_w3_t2_k2 0
pi_w3_t2_k3 0
pi_w3_t3_k0 0
pi_w3_t3_k1 0
pi_w3_t3_k2 0
pi_w3_t3_k3 0
pi_w3_t4_k0 0
pi_w3_t4_k1 0
pi_w3_t4_k2 0
pi_w3_t4_k3 0
pi_w3_t5_k0 0
pi_w3_t5_k1 0
pi_w3_t5_k2 0
pi_w3_t5_k3 0
pi_w3_t6_k0 3.3333333333333331e-01
pi_w3_t6_k1 0
pi_w3_t6_k2 3.3333333333333331e-01
pi_w3_t6_k3 0
pi_w3_t7_k0 0
pi_w3_t7_k1 0
pi_w3_t7_k2 0
pi_w3_t7_k3 0
pi_w3_t8_k0 0
pi_w3_t8_k1 0
pi_w3_t8_k2 0
pi_w3_t8_k3 0
pi_w3_t9_k0 6.6666666666666663e-01
pi_w3_t9_k1 0
pi_w3_t9_k2 6.6666666666666663e-01
pi_w3_t9_k3 0
pi_w3_t10_k0 0
pi_w3_t10_k1 0
pi_w3_t10_k2 0
pi_w3_t10_k3 0
pi_w4_t0_k0 0
pi_w4_t0_k1 1
pi_w4_t0_k2 0
pi_w4_t0_k3 1
pi_w4_t1_k0 0
pi_w4_t1_k1 0
pi_w4_t1_k2 0
pi_w4_t1_k3 0
pi_w4_t2_k0 0
pi_w4_t2_k1 0
pi_w4_t2_k2 0
pi_w4_t2_k3 0
pi_w4_t3_k0 0
pi_w4_t3_k1 0
pi_w4_t3_k2 0
pi_w4_t3_k3 0
pi_w4_t4_k0 0
pi_w4_t4_k1 0
pi_w4_t4_k2 0
pi_w4_t4_k3 0
pi_w4_t5_k0 0
pi_w4_t5_k1 0
pi_w4_t5_k2 0
pi_w4_t5_k3 0
pi_w4_t6_k0 3.3333333333333331e-01
pi_w4_t6_k1 0
pi_w4_t6_k2 3.3333333333333331e-01
pi_w4_t6_k3 0
pi_w4_t7_k0 0
pi_w4_t7_k1 0
pi_w4_t7_k2 0
pi_w4_t7_k3 0
pi_w4_t8_k0 0
pi_w4_t8_k1 0
pi_w4_t8_k2 0
pi_w4_t8_k3 0
pi_w4_t9_k0 6.6666666666666663e-01
pi_w4_t9_k1 0
pi_w4_t9_k2 6.6666666666666663e-01
pi_w4_t9_k3 0
pi_w4_t10_k0 0
pi_w4_t10_k1 0
pi_w4_t10_k2 0
pi_w4_t10_k3 0
n_w0_t0_k0 0
n_w0_t0_k1 0
n_w0_t0_k2 0
n_w0_t0_k3 0
n_w0_t1_k0 0
n_w0_t1_k1 0
n_w0_t1_k2 0
n_w0_t1_k3 0
n_w0_t2_k0 0
n_w0_t2_k1 0
n_w0_t2_k2 0
n_w0_t2_k3 0
n_w0_t3_k0 0
n_w0_t3_k1 0
n_w0_t3_k2 0
n_w0_t3_k3 0
n_w0_t4_k0 0
n_w0_t4_k1 0
n_w0_t4_k2 0
n_w0_t4_k3 0
n_w0_t5_k0 0
n_w0_t5_k1 0
n_w0_t5_k2 0
n_w0_t5_k3 0
n_w0_t6_k0 0
n_w0_t6_k1 8
n_w0_t6_k2 0
n_w0_t6_k3 10
n_w0_t7_k0 0
n_w0_t7_k1 0
n_w0_t7_k2 0
n_w0_t7_k3 0
n_w0_t8_k0 0
n_w0_t8_k1 0
n_w0_t8_k2 0
n_w0_t8_k3 0
n_w0_t9_k0 0
n_w0_t9_k1 16
n_w0_t9_k2 0
n_w0_t9_k3 20
n_w0_t10_k0 0
n_w0_t10_k1 0
n_w0_t10_k2 0
n_w0_t10_k3 0
n_w1_t0_k0 0
n_w1_t0_k1 0
n_w1_t0_k2 0
n_w1_t0_k3 0
n_w1_t1_k0 0
n_w1_t1_k1 0
n_w1_t1_k2 0
n_w1_t1_k3 0
n_w1_t2_k0 0
n_w1_t2_k1 0
n_w1_t2_k2 0
n_w1_t2_k3 0
n_w1_t3_k0 0
n_w1_t3_k1 0
n_w1_t3_k2 0
n_w1_t3_k3 0
n_w1_t4_k0 0
n_w1_t4_k1 0
n_w1_t4_k2 0
n_w1_t4_k3 0
n_w1_t5_k0 0
n_w1_t5_k1 0
n_w1_t5_k2 0
n_w1_t5_k3 0
n_w1_t6_k0 0
n_w1_t6_k1 0
n_w1_t6_k2 0
n_w1_t6_k3 2.4333333333333332e+01
n_w1_t7_k0 0
n_w1_t7_k1 0
n_w1_t7_k2 0
n_w1_t7_k3 0
n_w1_t8_k0 0
n_w1_t8_k1 0
n_w1_t8_k2 0
n_w1_t8_k3 0
n_w1_t9_k0 0
n_w1_t9_k1 0
n_w1_t9_k2 0
n_w1_t9_k3 4.8666666666666664e+01
n_w1_t10_k0 0
n_w1_t10_k1 0
n_w1_t10_k2 0
n_w1_t10_k3 0
n_w2_t0_k0 0
n_w2_t0_k1 0
n_w2_t0_k2 0
n_w2_t0_k3 0
n_w2_t1_k0 0
n_w2_t1_k1 0
n_w2_t1_k2 0
n_w2_t1_k3 0
n_w2_t2_k0 0
n_w2_t2_k1 0
n_w2_t2_k2 0
n_w2_t2_k3 0
n_w2_t3_k0 0
n_w2_t3_k1 0
n_w2_t3_k2 0
n_w2_t3_k3 0
n_w2_t4_k0 0
n_w2_t4_k1 0
n_w2_t4_k2 0
n_w2_t4_k3 0
n_w2_t5_k0 0
n_w2_t5_k1 0
n_w2_t5_k2 0
n_w2_t5_k3 0
n_w2_t6_k0 33
n_w2_t6_k1 0
n_w2_t6_k2 63
n_w2_t6_k3 6.6666666666666661e+00
n_w2_t7_k0 0
n_w2_t7_k1 0
n_w2_t7_k2 0
n_w2_t7_k3 0
n_w2_t8_k0 0
n_w2_t8_k1 0
n_w2_t8_k2 0
n_w2_t8_k3 0
n_w2_t9_k0 66
n_w2_t9_k1 0
n_w2_t9_k2 126
n_w2_t9_k3 1.3333333333333332e+01
n_w2_t10_k0 0
n_w2_t10_k1 0
n_w2_t10_k2 0
n_w2_t10_k3 0
n_w3_t0_k0 0
n_w3_t0_k1 0
n_w3_t0_k2 0
n_w3_t0_k3 0
n_w3_t1_k0 0
n_w3_t1_k1 0
n_w3_t1_k2 0
n_w3_t1_k3 0
n_w3_t2_k0 0
n_w3_t2_k1 0
n_w3_t2_k2 0
n_w3_t2_k3 0
n_w3_t3_k0 0
n_w3_t3_k1 0
n_w3_t3_k2 0
n_w3_t3_k3 0
n_w3_t4_k0 0
n_w3_t4_k1 0
n_w3_t4_k2 0
n_w3_t4_k3 0
n_w3_t5_k0 0
n_w3_t5_k1 0
n_w3_t5_k2 0
n_w3_t5_k3 0
n_w3_t6_k0 1.6666666666666664e+01
n_w3_t6_k1 0
n_w3_t6_k2 4.6666666666666664e+01
n_w3_t6_k3 0
n_w3_t7_k0 0
n_w3_t7_k1 0
n_w3_t7_k2 0
n_w3_t7_k3 0
n_w3_t8_k0 0
n_w3_t8_k1 0
n_w3_t8_k2 0
n_w3_t8_k3 0
n_w3_t9_k0 3.3333333333333329e+01
n_w3_t9_k1 0
n_w3_t9_k2 9.3333333333333329e+01
n_w3_t9_k3 0
n_w3_t10_k0 0
n_w3_t10_k1 0
n_w3_t10_k2 0
n_w3_t10_k3 0
n_w4_t0_k0 0
n_w4_t0_k1 0
n_w4_t0_k2 0
n_w4_t0_k3 0
n_w4_t1_k0 0
n_w4_t1_k1 0
n_w4_t1_k2 0
n_w4_t1_k3 0
n_w4_t2_k0 0
n_w4_t2_k1 0
n_w4_t2_k2 0
n_w4_t2_k3 0
n_w4_t3_k0 0
n_w4_t3_k1 0
n_w4_t3_k2 0
n_w4_t3_k3 0
n_w4_t4_k0 0
n_w4_t4_k1 0
n_w4_t4_k2 0
n_w4_t4_k3 0
n_w4_t5_k0 0
n_w4_t5_k1 0
n_w4_t5_k2 0
n_w4_t5_k3 0
n_w4_t6_k0 4.7666666666666664e+01
n_w4_t6_k1 0
n_w4_t6_k2 5.2666666666666664e+01
n_w4_t6_k3 0
n_w4_t7_k0 0
n_w4_t7_k1 0
n_w4_t7_k2 0
n_w4_t7_k3 0
n_w4_t8_k0 0
n_w4_t8_k1 0
n_w4_t8_k2 0
n_w4_t8_k3 0
n_w4_t9_k0 9.5333333333333329e+01
n_w4_t9_k1 0
n_w4_t9_k2 1.0533333333333333e+02
n_w4_t9_k3 0
n_w4_t10_k0 0
n_w4_t10_k1 0
n_w4_t10_k2 0
n_w4_t10_k3 0
ni_s0_w0_t0_k0 0
ni_s0_w0_t0_k1 0
ni_s0_w0_t0_k2 0
ni_s0_w0_t0_k3 0
ni_s0_w0_t1_k0 0
ni_s0_w0_t1_k1 0
ni_s0_w0_t1_k2 0
ni_s0_w0_t1_k3 0
ni_s0_w0_t2_k0 0
ni_s0_w0_t2_k1 0
ni_s0_w0_t2_k2 0
ni_s0_w0_t2_k3 0
ni_s0_w0_t3_k0 0
ni_s0_w0_t3_k1 0
ni_s0_w0_t3_k2 0
ni_s0_w0_t3_k3 0
ni_s0_w0_t4_k0 0
ni_s0_w0_t4_k1 0
ni_s0_w0_t4_k2 0
ni_s0_w0_t4_k3 0
ni_s0_w0_t5_k0 0
ni_s0_w0_t5_k1 0
ni_s0_w0_t5_k2 0
ni_s0_w0_t5_k3 0
ni_s0_w0_t6_k0 0
ni_s0_w0_t6_k1 24
ni_s0_w0_t6_k2 0
ni_s0_w0_t6_k3 30
ni_s0_w0_t7_k0 0
ni_s0_w0_t7_k1 0
ni_s0_w0_t7_k2 0
ni_s0_w0_t7_k3 0
ni_s0_w0_t8_k0 0
ni_s0_w0_t8_k1 0
ni_s0_w0_t8_k2 0
ni_s0_w0_t8_k3 0
ni_s0_w0_t9_k0 0
ni_s0_w0_t9_k1 0
ni_s0_w0_t9_k2 0
ni_s0_w0_t9_k3 0
ni_s0_w0_t10_k0 0
ni_s0_w0_t10_k1 0
ni_s0_w0_t10_k2 0
ni_s0_w0_t10_k3 0
ni_s0_w1_t0_k0 0
ni_s0_w1_t0_k1 0
ni_s0_w1_t0_k2 0
ni_s0_w1_t0_k3 0
ni_s0_w1_t1_k0 0
ni_s0_w1_t1_k1 0
ni_s0_w1_t1_k2 0
ni_s0_w1_t1_k3 0
ni_s0_w1_t2_k0 0
ni_s0_w1_t2_k1 0
ni_s0_w1_t2_k2 0
ni_s0_w1_t2_k3 0
ni_s0_w1_t3_k0 0
ni_s0_w1_t3_k1 0
ni_s0_w1_t3_k2 0
ni_s0_w1_t3_k3 0
ni_s0_w1_t4_k0 0
ni_s0_w1_t4_k1 0
ni_s0_w1_t4_k2 0
ni_s0_w1_t4_k3 0
ni_s0_w1_t5_k0 0
ni_s0_w1_t5_k1 0
ni_s0_w1_t5_k2 0
ni_s0_w1_t5_k3 0
ni_s0_w1_t6_k0 0
ni_s0_w1_t6_k1 0
ni_s0_w1_t6_k2 0
ni_s0_w1_t6_k3 73
ni_s0_w1_t7_k0 0
ni_s0_w1_t7_k1 0
ni_s0_w1_t7_k2 0
ni_s0_w1_t7_k3 0
ni_s0_w1_t8_k0 0
ni_s0_w1_t8_k1 0
ni_s0_w1_t8_k2 0
ni_s0_w1_t8_k3 0
ni_s0_w1_t9_k0 0
ni_s0_w1_t9_k1 0
ni_s0_w1_t9_k2 0
ni_s0_w1_t9_k3 0
ni_s0_w1_t10_k0 0
ni_s0_w1_t10_k1 0
ni_s0_w1_t10_k2 0
ni_s0_w1_t10_k3 0
ni_s0_w2_t0_k0 0
ni_s0_w2_t0_k1 0
ni_s0_w2_t0_k2 0
ni_s0_w2_t0_k3 0
ni_s0_w2_t1_k0 0
ni_s0_w2_t1_k1 0
ni_s0_w2_t1_k2 0
ni_s0_w2_t1_k3 0
ni_s0_w2_t2_k0 0
ni_s0_w2_t2_k1 0
ni_s0_w2_t2_k2 0
ni_s0_w2_t2_k3 0
ni_s0_w2_t3_k0 0
ni_s0_w2_t3_k1 0
ni_s0_w2_t3_k2 0
ni_s0_w2_t3_k3 0
ni_s0_w2_t4_k0 0
ni_s0_w2_t4_k1 0
ni_s0_w2_t4_k2 0
ni_s0_w2_t4_k3 0
ni_s0_w2_t5_k0 0
ni_s0_w2_t5_k1 0
ni_s0_w2_t5_k2 0
ni_s0_w2_t5_k3 0
ni_s0_w2_t6_k0 99
ni_s0_w2_t6_k1 0
ni_s0_w2_t6_k2 189
ni_s0_w2_t6_k3 20
ni_s0_w2_t7_k0 0
ni_s0_w2_t7_k1 0
ni_s0_w2_t7_k2 0
ni_s0_w2_t7_k3 0
ni_s0_w2_t8_k0 0
ni_s0_w2_t8_k1 0
ni_s0_w2_t8_k2 0
ni_s0_w2_t8_k3 0
ni_s0_w2_t9_k0 0
ni_s0_w2_t9_k1 0
ni_s0_w2_t9_k2 0
ni_s0_w2_t9_k3 0
ni_s0_w2_t10_k0 0
ni_s0_w2_t10_k1 0
ni_s0_w2_t10_k2 0
ni_s0_w2_t10_k3 0
ni_s0_w3_t0_k0 0
ni_s0_w3_t0_k1 0
ni_s0_w3_t0_k2 0
ni_s0_w3_t0_k3 0
ni_s0_w3_t1_k0 0
ni_s0_w3_t1_k1 0
ni_s0_w3_t1_k2 0
ni_s0_w3_t1_k3 0
ni_s0_w3_t2_k0 0
ni_s0_w3_t2_k1 0
ni_s0_w3_t2_k2 0
ni_s0_w3_t2_k3 0
ni_s0_w3_t3_k0 0
ni_s0_w3_t3_k1 0
ni_s0_w3_t3_k2 0
ni_s0_w3_t3_k3 0
ni_s0_w3_t4_k0 0
ni_s0_w3_t4_k1 0
ni_s0_w3_t4_k2 0
ni_s0_w3_t4_k3 0
ni_s0_w3_t5_k0 0
ni_s0_w3_t5_k1 0
ni_s0_w3_t5_k2 0
ni_s0_w3_t5_k3 0
ni_s0_w3_t6_k0 50
ni_s0_w3_t6_k1 0
ni_s0_w3_t6_k2 140
ni_s0_w3_t6_k3 0
ni_s0_w3_t7_k0 0
ni_s0_w3_t7_k1 0
ni_s0_w3_t7_k2 0
ni_s0_w3_t7_k3 0
ni_s0_w3_t8_k0 0
ni_s0_w3_t8_k1 0
ni_s0_w3_t8_k2 0
ni_s0_w3_t8_k3 0
ni_s0_w3_t9_k0 0
ni_s0_w3_t9_k1 0
ni_s0_w3_t9_k2 0
ni_s0_w3_t9_k3 0
ni_s0_w3_t10_k0 0
ni_s0_w3_t10_k1 0
ni_s0_w3_t10_k2 0
ni_s0_w3_t10_k3 0
ni_s0_w4_t0_k0 0
ni_s0_w4_t0_k1 0
ni_s0_w4_t0_k2 0
ni_s0_w4_t0_k3 0
ni_s0_w4_t1_k0 0
ni_s0_w4_t1_k1 0
ni_s0_w4_t1_k2 0
ni_s0_w4_t1_k3 0
ni_s0_w4_t2_k0 0
ni_s0_w4_t2_k1 0
ni_s0_w4_t2_k2 0
ni_s0_w4_t2_k3 0
ni_s0_w4_t3_k0 0
ni_s0_w4_t3_k1 0
ni_s0_w4_t3_k2 0
ni_s0_w4_t3_k3 0
ni_s0_w4_t4_k0 0
ni_s0_w4_t4_k1 0
ni_s0_w4_t4_k2 0
ni_s0_w4_t4_k3 0
ni_s0_w4_t5_k0 0
ni_s0_w4_t5_k1 0
ni_s0_w4_t5_k2 0
ni_s0_w4_t5_k3 0
ni_s0_w4_t6_k0 143
ni_s0_w4_t6_k1 0
ni_s0_w4_t6_k2 158
ni_s0_w4_t6_k3 0
ni_s0_w4_t7_k0 0
ni_s0_w4_t7_k1 0
ni_s0_w4_t7_k2 0
ni_s0_w4_t7_k3 0
ni_s0_w4_t8_k0 0
ni_s0_w4_t8_k1 0
ni_s0_w4_t8_k2 0
ni_s0_w4_t8_k3 0
ni_s0_w4_t9_k0 0
ni_s0_w4_t9_k1 0
ni_s0_w4_t9_k2 0
ni_s0_w4_t9_k3 0
ni_s0_w4_t10_k0 0
ni_s0_w4_t10_k1 0
ni_s0_w4_t10_k2 0
ni_s0_w4_t10_k3 0
ni_s1_w0_t0_k0 0
ni_s1_w0_t0_k1 0
ni_s1_w0_t0_k2 0
ni_s1_w0_t0_k3 0
ni_s1_w0_t1_k0 0
ni_s1_w0_t1_k1 0
ni_s1_w0_t1_k2 0
ni_s1_w0_t1_k3 0
ni_s1_w0_t2_k0 0
ni_s1_w0_t2_k1 0
ni_s1_w0_t2_k2 0
ni_s1_w0_t2_k3 0
ni_s1_w0_t3_k0 0
ni_s1_w0_t3_k1 0
ni_s1_w0_t3_k2 0
ni_s1_w0_t3_k3 0
ni_s1_w0_t4_k0 0
ni_s1_w0_t4_k1 0
ni_s1_w0_t4_k2 0
ni_s1_w0_t4_k3 0
ni_s1_w0_t5_k0 0
ni_s1_w0_t5_k1 0
ni_s1_w0_t5_k2 0
ni_s1_w0_t5_k3 0
ni_s1_w0_t6_k0 0
ni_s1_w0_t6_k1 0
ni_s1_w0_t6_k2 0
ni_s1_w0_t6_k3 0
ni_s1_w0_t7_k0 0
ni_s1_w0_t7_k1 0
ni_s1_w0_t7_k2 0
ni_s1_w0_t7_k3 0
ni_s1_w0_t8_k0 0
ni_s1_w0_t8_k1 0
ni_s1_w0_t8_k2 0
ni_s1_w0_t8_k3 0
ni_s1_w0_t9_k0 0
ni_s1_w0_t9_k1 24
ni_s1_w0_t9_k2 0
ni_s1_w0_t9_k3 30
ni_s1_w0_t10_k0 0
ni_s1_w0_t10_k1 0
ni_s1_w0_t10_k2 0
ni_s1_w0_t10_k3 0
ni_s1_w1_t0_k0 0
ni_s1_w1_t0_k1 0
ni_s1_w1_t0_k2 0
ni_s1_w1_t0_k3 0
ni_s1_w1_t1_k0 0
ni_s1_w1_t1_k1 0
ni_s1_w1_t1_k2 0
ni_s1_w1_t1_k3 0
ni_s1_w1_t2_k0 0
ni_s1_w1_t2_k1 0
ni_s1_w1_t2_k2 0
ni_s1_w1_t2_k3 0
ni_s1_w1_t3_k0 0
ni_s1_w1_t3_k1 0
ni_s1_w1_t3_k2 0
ni_s1_w1_t3_k3 0
ni_s1_w1_t4_k0 0
ni_s1_w1_t4_k1 0
ni_s1_w1_t4_k2 0
ni_s1_w1_t4_k3 0
ni_s1_w1_t5_k0 0
ni_s1_w1_t5_k1 0
ni_s1_w1_t5_k2 0
ni_s1_w1_t5_k3 0
ni_s1_w1_t6_k0 0
ni_s1_w1_t6_k1 0
ni_s1_w1_t6_k2 0
ni_s1_w1_t6_k3 0
ni_s1_w1_t7_k0 0
ni_s1_w1_t7_k1 0
ni_s1_w1_t7_k2 0
ni_s1_w1_t7_k3 0
ni_s1_w1_t8_k0 0
ni_s1_w1_t8_k1 0
ni_s1_w1_t8_k2 0
ni_s1_w1_t8_k3 0
ni_s1_w1_t9_k0 0
ni_s1_w1_t9_k1 0
ni_s1_w1_t9_k2 0
ni_s1_w1_t9_k3 73
ni_s1_w1_t10_k0 0
ni_s1_w1_t10_k1 0
ni_s1_w1_t10_k2 0
ni_s1_w1_t10_k3 0
ni_s1_w2_t0_k0 0
ni_s1_w2_t0_k1 0
ni_s1_w2_t0_k2 0
ni_s1_w2_t0_k3 0
ni_s1_w2_t1_k0 0
ni_s1_w2_t1_k1 0
ni_s1_w2_t1_k2 0
ni_s1_w2_t1_k3 0
ni_s1_w2_t2_k0 0
ni_s1_w2_t2_k1 0
ni_s1_w2_t2_k2 0
ni_s1_w2_t2_k3 0
ni_s1_w2_t3_k0 0
ni_s1_w2_t3_k1 0
ni_s1_w2_t3_k2 0
ni_s1_w2_t3_k3 0
ni_s1_w2_t4_k0 0
ni_s1_w2_t4_k1 0
ni_s1_w2_t4_k2 0
ni_s1_w2_t4_k3 0
ni_s1_w2_t5_k0 0
ni_s1_w2_t5_k1 0
ni_s1_w2_t5_k2 0
ni_s1_w2_t5_k3 0
ni_s1_w2_t6_k0 0
ni_s1_w2_t6_k1 0
ni_s1_w2_t6_k2 0
ni_s1_w2_t6_k3 0
ni_s1_w2_t7_k0 0
ni_s1_w2_t7_k1 0
ni_s1_w2_t7_k2 0
ni_s1_w2_t7_k3 0
ni_s1_w2_t8_k0 0
ni_s1_w2_t8_k1 0
ni_s1_w2_t8_k2 0
ni_s1_w2_t8_k3 0
ni_s1_w2_t9_k0 99
ni_s1_w2_t9_k1 0
ni_s1_w2_t9_k2 189
ni_s1_w2_t9_k3 20
ni_s1_w2_t10_k0 0
ni_s1_w2_t10_k1 0
ni_s1_w2_t10_k2 0
ni_s1_w2_t10_k3 0
ni_s1_w3_t0_k0 0
ni_s1_w3_t0_k1 0
ni_s1_w3_t0_k2 0
ni_s1_w3_t0_k3 0
ni_s1_w3_t1_k0 0
ni_s1_w3_t1_k1 0
ni_s1_w3_t1_k2 0
ni_s1_w3_t1_k3 0
ni_s1_w3_t2_k0 0
ni_s1_w3_t2_k1 0
ni_s1_w3_t2_k2 0
ni_s1_w3_t2_k3 0
ni_s1_w3_t3_k0 0
ni_s1_w3_t3_k1 0
ni_s1_w3_t3_k2 0
ni_s1_w3_t3_k3 0
ni_s1_w3_t4_k0 0
ni_s1_w3_t4_k1 0
ni_s1_w3_t4_k2 0
ni_s1_w3_t4_k3 0
ni_s1_w3_t5_k0 0
ni_s1_w3_t5_k1 0
ni_s1_w3_t5_k2 0
ni_s1_w3_t5_k3 0
ni_s1_w3_t6_k0 0
ni_s1_w3_t6_k1 0
ni_s1_w3_t6_k2 0
ni_s1_w3_t6_k3 0
ni_s1_w3_t7_k0 0
ni_s1_w3_t7_k1 0
ni_s1_w3_t7_k2 0
ni_s1_w3_t7_k3 0
ni_s1_w3_t8_k0 0
ni_s1_w3_t8_k1 0
ni_s1_w3_t8_k2 0
ni_s1_w3_t8_k3 0
ni_s1_w3_t9_k0 50
ni_s1_w3_t9_k1 0
ni_s1_w3_t9_k2 140
ni_s1_w3_t9_k3 0
ni_s1_w3_t10_k0 0
ni_s1_w3_t10_k1 0
ni_s1_w3_t10_k2 0
ni_s1_w3_t10_k3 0
ni_s1_w4_t0_k0 0
ni_s1_w4_t0_k1 0
ni_s1_w4_t0_k2 0
ni_s1_w4_t0_k3 0
ni_s1_w4_t1_k0 0
ni_s1_w4_t1_k1 0
ni_s1_w4_t1_k2 0
ni_s1_w4_t1_k3 0
ni_s1_w4_t2_k0 0
ni_s1_w4_t2_k1 0
ni_s1_w4_t2_k2 0
ni_s1_w4_t2_k3 0
ni_s1_w4_t3_k0 0
ni_s1_w4_t3_k1 0
ni_s1_w4_t3_k2 0
ni_s1_w4_t3_k3 0
ni_s1_w4_t4_k0 0
ni_s1_w4_t4_k1 0
ni_s1_w4_t4_k2 0
ni_s1_w4_t4_k3 0
ni_s1_w4_t5_k0 0
ni_s1_w4_t5_k1 0
ni_s1_w4_t5_k2 0
ni_s1_w4_t5_k3 0
ni_s1_w4_t6_k0 0
ni_s1_w4_t6_k1 0
ni_s1_w4_t6_k2 0
ni_s1_w4_t6_k3 0
ni_s1_w4_t7_k0 0
ni_s1_w4_t7_k1 0
ni_s1_w4_t7_k2 0
ni_s1_w4_t7_k3 0
ni_s1_w4_t8_k0 0
ni_s1_w4_t8_k1 0
ni_s1_w4_t8_k2 0
ni_s1_w4_t8_k3 0
ni_s1_w4_t9_k0 143
ni_s1_w4_t9_k1 0
ni_s1_w4_t9_k2 158
ni_s1_w4_t9_k3 0
ni_s1_w4_t10_k0 0
ni_s1_w4_t10_k1 0
ni_s1_w4_t10_k2 0
ni_s1_w4_t10_k3 0
ni_s2_w0_t0_k0 0
ni_s2_w0_t0_k1 0
ni_s2_w0_t0_k2 0
ni_s2_w0_t0_k3 0
ni_s2_w0_t1_k0 0
ni_s2_w0_t1_k1 0
ni_s2_w0_t1_k2 0
ni_s2_w0_t1_k3 0
ni_s2_w0_t2_k0 0
ni_s2_w0_t2_k1 0
ni_s2_w0_t2_k2 0
ni_s2_w0_t2_k3 0
ni_s2_w0_t3_k0 0
ni_s2_w0_t3_k1 0
ni_s2_w0_t3_k2 0
ni_s2_w0_t3_k3 0
ni_s2_w0_t4_k0 0
ni_s2_w0_t4_k1 0
ni_s2_w0_t4_k2 0
ni_s2_w0_t4_k3 0
ni_s2_w0_t5_k0 0
ni_s2_w0_t5_k1 0
ni_s2_w0_t5_k2 0
ni_s2_w0_t5_k3 0
ni_s2_w0_t6_k0 0
ni_s2_w0_t6_k1 0
ni_s2_w0_t6_k2 0
ni_s2_w0_t6_k3 0
ni_s2_w0_t7_k0 0
ni_s2_w0_t7_k1 0
ni_s2_w0_t7_k2 0
ni_s2_w0_t7_k3 0
ni_s2_w0_t8_k0 0
ni_s2_w0_t8_k1 0
ni_s2_w0_t8_k2 0
ni_s2_w0_t8_k3 0
ni_s2_w0_t9_k0 0
ni_s2_w0_t9_k1 24
ni_s2_w0_t9_k2 0
ni_s2_w0_t9_k3 30
ni_s2_w0_t10_k0 0
ni_s2_w0_t10_k1 0
ni_s2_w0_t10_k2 0
ni_s2_w0_t10_k3 0
ni_s2_w1_t0_k0 0
ni_s2_w1_t0_k1 0
ni_s2_w1_t0_k2 0
ni_s2_w1_t0_k3 0
ni_s2_w1_t1_k0 0
ni_s2_w1_t1_k1 0
ni_s2_w1_t1_k2 0
ni_s2_w1_t1_k3 0
ni_s2_w1_t2_k0 0
ni_s2_w1_t2_k1 0
ni_s2_w1_t2_k2 0
ni_s2_w1_t2_k3 0
ni_s2_w1_t3_k0 0
ni_s2_w1_t3_k1 0
ni_s2_w1_t3_k2 0
ni_s2_w1_t3_k3 0
ni_s2_w1_t4_k0 0
ni_s2_w1_t4_k1 0
ni_s2_w1_t4_k2 0
ni_s2_w1_t4_k3 0
ni_s2_w1_t5_k0 0
ni_s2_w1_t5_k1 0
ni_s2_w1_t5_k2 0
ni_s2_w1_t5_k3 0
ni_s2_w1_t6_k0 0
ni_s2_w1_t6_k1 0
ni_s2_w1_t6_k2 0
ni_s2_w1_t6_k3 0
ni_s2_w1_t7_k0 0
ni_s2_w1_t7_k1 0
ni_s2_w1_t7_k2 0
ni_s2_w1_t7_k3 0
ni_s2_w1_t8_k0 0
ni_s2_w1_t8_k1 0
ni_s2_w1_t8_k2 0
ni_s2_w1_t8_k3 0
ni_s2_w1_t9_k0 0
ni_s2_w1_t9_k1 0
ni_s2_w1_t9_k2 0
ni_s2_w1_t9_k3 73
ni_s2_w1_t10_k0 0
ni_s2_w1_t10_k1 0
ni_s2_w1_t10_k2 0
ni_s2_w1_t10_k3 0
ni_s2_w2_t0_k0 0
ni_s2_w2_t0_k1 0
ni_s2_w2_t0_k2 0
ni_s2_w2_t0_k3 0
ni_s2_w2_t1_k0 0
ni_s2_w2_t1_k1 0
ni_s2_w2_t1_k2 0
ni_s2_w2_t1_k3 0
ni_s2_w2_t2_k0 0
ni_s2_w2_t2_k1 0
ni_s2_w2_t2_k2 0
ni_s2_w2_t2_k3 0
ni_s2_w2_t3_k0 0
ni_s2_w2_t3_k1 0
ni_s2_w2_t3_k2 0
ni_s2_w2_t3_k3 0
ni_s2_w2_t4_k0 0
ni_s2_w2_t4_k1 0
ni_s2_w2_t4_k2 0
ni_s2_w2_t4_k3 0
ni_s2_w2_t5_k0 0
ni_s2_w2_t5_k1 0
ni_s2_w2_t5_k2 0
ni_s2_w2_t5_k3 0
ni_s2_w2_t6_k0 0
ni_s2_w2_t6_k1 0
ni_s2_w2_t6_k2 0
ni_s2_w2_t6_k3 0
ni_s2_w2_t7_k0 0
ni_s2_w2_t7_k1 0
ni_s2_w2_t7_k2 0
ni_s2_w2_t7_k3 0
ni_s2_w2_t8_k0 0
ni_s2_w2_t8_k1 0
ni_s2_w2_t8_k2 0
ni_s2_w2_t8_k3 0
ni_s2_w2_t9_k0 99
ni_s2_w2_t9_k1 0
ni_s2_w2_t9_k2 189
ni_s2_w2_t9_k3 20
ni_s2_w2_t10_k0 0
ni_s2_w2_t10_k1 0
ni_s2_w2_t10_k2 0
ni_s2_w2_t10_k3 0
ni_s2_w3_t0_k0 0
ni_s2_w3_t0_k1 0
ni_s2_w3_t0_k2 0
ni_s2_w3_t0_k3 0
ni_s2_w3_t1_k0 0
ni_s2_w3_t1_k1 0
ni_s2_w3_t1_k2 0
ni_s2_w3_t1_k3 0
ni_s2_w3_t2_k0 0
ni_s2_w3_t2_k1 0
ni_s2_w3_t2_k2 0
ni_s2_w3_t2_k3 0
ni_s2_w3_t3_k0 0
ni_s2_w3_t3_k1 0
ni_s2_w3_t3_k2 0
ni_s2_w3_t3_k3 0
ni_s2_w3_t4_k0 0
ni_s2_w3_t4_k1 0
ni_s2_w3_t4_k2 0
ni_s2_w3_t4_k3 0
ni_s2_w3_t5_k0 0
ni_s2_w3_t5_k1 0
ni_s2_w3_t5_k2 0
ni_s2_w3_t5_k3 0
ni_s2_w3_t6_k0 0
ni_s2_w3_t6_k1 0
ni_s2_w3_t6_k2 0
ni_s2_w3_t6_k3 0
ni_s2_w3_t7_k0 0
ni_s2_w3_t7_k1 0
ni_s2_w3_t7_k2 0
ni_s2_w3_t7_k3 0
ni_s2_w3_t8_k0 0
ni_s2_w3_t8_k1 0
ni_s2_w3_t8_k2 0
ni_s2_w3_t8_k3 0
ni_s2_w3_t9_k0 50
ni_s2_w3_t9_k1 0
ni_s2_w3_t9_k2 140
ni_s2_w3_t9_k3 0
ni_s2_w3_t10_k0 0
ni_s2_w3_t10_k1 0
ni_s2_w3_t10_k2 0
ni_s2_w3_t10_k3 0
ni_s2_w4_t0_k0 0
ni_s2_w4_t0_k1 0
ni_s2_w4_t0_k2 0
ni_s2_w4_t0_k3 0
ni_s2_w4_t1_k0 0
ni_s2_w4_t1_k1 0
ni_s2_w4_t1_k2 0
ni_s2_w4_t1_k3 0
ni_s2_w4_t2_k0 0
ni_s2_w4_t2_k1 0
ni_s2_w4_t2_k2 0
ni_s2_w4_t2_k3 0
ni_s2_w4_t3_k0 0
ni_s2_w4_t3_k1 0
ni_s2_w4_t3_k2 0
ni_s2_w4_t3_k3 0
ni_s2_w4_t4_k0 0
ni_s2_w4_t4_k1 0
ni_s2_w4_t4_k2 0
ni_s2_w4_t4_k3 0
ni_s2_w4_t5_k0 0
ni_s2_w4_t5_k1 0
ni_s2_w4_t5_k2 0
ni_s2_w4_t5_k3 0
ni_s2_w4_t6_k0 0
ni_s2_w4_t6_k1 0
ni_s2_w4_t6_k2 0
ni_s2_w4_t6_k3 0
ni_s2_w4_t7_k0 0
ni_s2_w4_t7_k1 0
ni_s2_w4_t7_k2 0
ni_s2_w4_t7_k3 0
ni_s2_w4_t8_k0 0
ni_s2_w4_t8_k1 0
ni_s2_w4_t8_k2 0
ni_s2_w4_t8_k3 0
ni_s2_w4_t9_k0 143
ni_s2_w4_t9_k1 0
ni_s2_w4_t9_k2 158
ni_s2_w4_t9_k3 0
ni_s2_w4_t10_k0 0
ni_s2_w4_t10_k1 0
ni_s2_w4_t10_k2 0
ni_s2_w4_t10_k3 0
o_w0_r0 0
o_w0_r1 0
o_w0_r2 0
o_w0_r3 0
o_w0_r4 0
o_w0_r5 0
o_w0_r6 1.3333333333333332e+01
o_w0_r7 0
o_w0_r8 0
o_w0_r9 4
o_w1_r0 0
o_w1_r1 0
o_w1_r2 0
o_w1_r3 0
o_w1_r4 0
o_w1_r5 0
o_w1_r6 1.4333333333333332e+01
o_w1_r7 0
o_w1_r8 0
o_w1_r9 0
o_w2_r0 0
o_w2_r1 0
o_w2_r2 0
o_w2_r3 0
o_w2_r4 0
o_w2_r5 0
o_w2_r6 89
o_w2_r7 0
o_w2_r8 0
o_w2_r9 1.3333333333333332e+01
o_w3_r0 0
o_w3_r1 0
o_w3_r2 0
o_w3_r3 0
o_w3_r4 0
o_w3_r5 0
o_w3_r6 129
o_w3_r7 0
o_w3_r8 0
o_w3_r9 0
o_w4_r0 0
o_w4_r1 0
o_w4_r2 0
o_w4_r3 0
o_w4_r4 0
o_w4_r5 0
o_w4_r6 2.1533333333333331e+02
o_w4_r7 0
o_w4_r8 0
o_w4_r9 1.0466666666666666e+02
O_0_w0_r0 0
O_0_w0_r1 0
O_0_w0_r2 0
O_0_w0_r3 0
O_0_w0_r4 0
O_0_w0_r5 0
O_0_w0_r6 40
O_0_w0_r7 0
O_0_w0_r8 0
O_0_w0_r9 0
O_0_w1_r0 0
O_0_w1_r1 0
O_0_w1_r2 0
O_0_w1_r3 0
O_0_w1_r4 0
O_0_w1_r5 0
O_0_w1_r6 43
O_0_w1_r7 0
O_0_w1_r8 0
O_0_w1_r9 0
O_0_w2_r0 0
O_0_w2_r1 0
O_0_w2_r2 0
O_0_w2_r3 0
O_0_w2_r4 0
O_0_w2_r5 0
O_0_w2_r6 267
O_0_w2_r7 0
O_0_w2_r8 0
O_0_w2_r9 0
O_0_w3_r0 0
O_0_w3_r1 0
O_0_w3_r2 0
O_0_w3_r3 0
O_0_w3_r4 0
O_0_w3_r5 0
O_0_w3_r6 387
O_0_w3_r7 0
O_0_w3_r8 0
O_0_w3_r9 0
O_0_w4_r0 0
O_0_w4_r1 0
O_0_w4_r2 0
O_0_w4_r3 0
O_0_w4_r4 0
O_0_w4_r5 0
O_0_w4_r6 646
O_0_w4_r7 0
O_0_w4_r8 0
O_0_w4_r9 0
O_1_w0_r0 0
O_1_w0_r1 0
O_1_w0_r2 0
O_1_w0_r3 0
O_1_w0_r4 0
O_1_w0_r5 0
O_1_w0_r6 0
O_1_w0_r7 0
O_1_w0_r8 0
O_1_w0_r9 6
O_1_w1_r0 0
O_1_w1_r1 0
O_1_w1_r2 0
O_1_w1_r3 0
O_1_w1_r4 0
O_1_w1_r5 0
O_1_w1_r6 0
O_1_w1_r7 0
O_1_w1_r8 0
O_1_w1_r9 0
O_1_w2_r0 0
O_1_w2_r1 0
O_1_w2_r2 0
O_1_w2_r3 0
O_1_w2_r4 0
O_1_w2_r5 0
O_1_w2_r6 0
O_1_w2_r7 0
O_1_w2_r8 0
O_1_w2_r9 20
O_1_w3_r0 0
O_1_w3_r1 0
O_1_w3_r2 0
O_1_w3_r3 0
O_1_w3_r4 0
O_1_w3_r5 0
O_1_w3_r6 0
O_1_w3_r7 0
O_1_w3_r8 0
O_1_w3_r9 0
O_1_w4_r0 0
O_1_w4_r1 0
O_1_w4_r2 0
O_1_w4_r3 0
O_1_w4_r4 0
O_1_w4_r5 0
O_1_w4_r6 0
O_1_w4_r7 0
O_1_w4_r8 0
O_1_w4_r9 157
O_2_w0_r0 0
O_2_w0_r1 0
O_2_w0_r2 0
O_2_w0_r3 0
O_2_w0_r4 0
O_2_w0_r5 0
O_2_w0_r6 0
O_2_w0_r7 0
O_2_w0_r8 0
O_2_w0_r9 6
O_2_w1_r0 0
O_2_w1_r1 0
O_2_w1_r2 0
O_2_w1_r3 0
O_2_w1_r4 0
O_2_w1_r5 0
O_2_w1_r6 0
O_2_w1_r7 0
O_2_w1_r8 0
O_2_w1_r9 0
O_2_w2_r0 0
O_2_w2_r1 0
O_2_w2_r2 0
O_2_w2_r3 0
O_2_w2_r4 0
O_2_w2_r5 0
O_2_w2_r6 0
O_2_w2_r7 0
O_2_w2_r8 0
O_2_w2_r9 20
O_2_w3_r0 0
O_2_w3_r1 0
O_2_w3_r2 0
O_2_w3_r3 0
O_2_w3_r4 0
O_2_w3_r5 0
O_2_w3_r6 0
O_2_w3_r7 0
O_2_w3_r8 0
O_2_w3_r9 0
O_2_w4_r0 0
O_2_w4_r1 0
O_2_w4_r2 0
O_2_w4_r3 0
O_2_w4_r4 0
O_2_w4_r5 0
O_2_w4_r6 0
O_2_w4_r7 0
O_2_w4_r8 0
O_2_w4_r9 157
y_w0_r0_s0 0
y_w0_r1_s0 0
y_w0_r2_s0 0
y_w0_r3_s0 0
y_w0_r4_s0 0
y_w0_r5_s0 0
y_w0_r6_s0 1
y_w0_r7_s0 0
y_w0_r8_s0 0
y_w0_r9_s0 0
y_w1_r0_s0 0
y_w1_r1_s0 0
y_w1_r2_s0 0
y_w1_r3_s0 0
y_w1_r4_s0 0
y_w1_r5_s0 0
y_w1_r6_s0 5
y_w1_r7_s0 0
y_w1_r8_s0 0
y_w1_r9_s0 0
y_w2_r0_s0 0
y_w2_r1_s0 0
y_w2_r2_s0 0
y_w2_r3_s0 0
y_w2_r4_s0 0
y_w2_r5_s0 0
y_w2_r6_s0 6
y_w2_r7_s0 0
y_w2_r8_s0 0
y_w2_r9_s0 0
y_w3_r0_s0 0
y_w3_r1_s0 0
y_w3_r2_s0 0
y_w3_r3_s0 0
y_w3_r4_s0 0
y_w3_r5_s0 0
y_w3_r6_s0 5
y_w3_r7_s0 0
y_w3_r8_s0 0
y_w3_r9_s0 0
y_w4_r0_s0 0
y_w4_r1_s0 0
y_w4_r2_s0 0
y_w4_r3_s0 0
y_w4_r4_s0 0
y_w4_r5_s0 0
y_w4_r6_s0 3
y_w4_r7_s0 0
y_w4_r8_s0 0
y_w4_r9_s0 0
y_w0_r0_s1 0
y_w0_r1_s1 0
y_w0_r2_s1 0
y_w0_r3_s1 0
y_w0_r4_s1 0
y_w0_r5_s1 0
y_w0_r6_s1 0
y_w0_r7_s1 0
y_w0_r8_s1 0
y_w0_r9_s1 1
y_w1_r0_s1 0
y_w1_r1_s1 0
y_w1_r2_s1 0
y_w1_r3_s1 0
y_w1_r4_s1 0
y_w1_r5_s1 0
y_w1_r6_s1 0
y_w1_r7_s1 0
y_w1_r8_s1 0
y_w1_r9_s1 3
y_w2_r0_s1 0
y_w2_r1_s1 0
y_w2_r2_s1 0
y_w2_r3_s1 0
y_w2_r4_s1 0
y_w2_r5_s1 0
y_w2_r6_s1 0
y_w2_r7_s1 0
y_w2_r8_s1 0
y_w2_r9_s1 6
y_w3_r0_s1 0
y_w3_r1_s1 0
y_w3_r2_s1 0
y_w3_r3_s1 0
y_w3_r4_s1 0
y_w3_r5_s1 0
y_w3_r6_s1 0
y_w3_r7_s1 0
y_w3_r8_s1 0
y_w3_r9_s1 5
y_w4_r0_s1 0
y_w4_r1_s1 0
y_w4_r2_s1 0
y_w4_r3_s1 0
y_w4_r4_s1 0
y_w4_r5_s1 0
y_w4_r6_s1 0
y_w4_r7_s1 0
y_w4_r8_s1 0
y_w4_r9_s1 3
y_w0_r0_s2 0
y_w0_r1_s2 0
y_w0_r2_s2 0
y_w0_r3_s2 0
y_w0_r4_s2 0
y_w0_r5_s2 0
y_w0_r6_s2 0
y_w0_r7_s2 0
y_w0_r8_s2 0
y_w0_r9_s2 1
y_w1_r0_s2 0
y_w1_r1_s2 0
y_w1_r2_s2 0
y_w1_r3_s2 0
y_w1_r4_s2 0
y_w1_r5_s2 0
y_w1_r6_s2 0
y_w1_r7_s2 0
y_w1_r8_s2 0
y_w1_r9_s2 3
y_w2_r0_s2 0
y_w2_r1_s2 0
y_w2_r2_s2 0
y_w2_r3_s2 0
y_w2_r4_s2 0
y_w2_r5_s2 0
y_w2_r6_s2 0
y_w2_r7_s2 0
y_w2_r8_s2 0
y_w2_r9_s2 6
y_w3_r0_s2 0
y_w3_r1_s2 0
y_w3_r2_s2 0
y_w3_r3_s2 0
y_w3_r4_s2 0
y_w3_r5_s2 0
y_w3_r6_s2 0
y_w3_r7_s2 0
y_w3_r8_s2 0
y_w3_r9_s2 5
y_w4_r0_s2 0
y_w4_r1_s2 0
y_w4_r2_s2 0
y_w4_r3_s2 0
y_w4_r4_s2 0
y_w4_r5_s2 0
y_w4_r6_s2 0
y_w4_r7_s2 0
y_w4_r8_s2 0
y_w4_r9_s2 3
p_w0 1
s_w0 1
p_w1 5
s_w1 4
p_w2 6
s_w2 2
p_w3 5
s_w3 3
p_w4 3
s_w4 0
